
--- Job qubo.gms Start 06/03/20 22:07:19 31.1.1 r4b06116 WEX-WEI x86 64bit/MS Windows
--- Applying:
    C:\GAMS\win64\31.1\gmsprmNT.txt
--- GAMS Parameters defined
    Input C:\Users\debernal\Dropbox\Quantum Embedding\GAMS\stable_set\qubo.gms
    PageWidth 80
    PageSize 0
    PageContr 3
    Action CE
    ScrDir C:\Users\debernal\Dropbox\Quantum Embedding\GAMS\stable_set\225a\
    SysDir C:\GAMS\win64\31.1\
    WorkDir C:\Users\debernal\Dropbox\Quantum Embedding\GAMS\stable_set\
    LogOption 3
    DFormat 0
    TFormat 0
    ErrorLog 99
    IDE 1
GAMS 31.1.1   Copyright (C) 1987-2020 GAMS Development. All rights reserved
Licensee: Eval License Carnegie Mellon University        G191212/0001AB-GEN
          Dept. of Chemical Engineering                              DCE375
          C:\Users\debernal\Documents\GAMS\gamslice.txt
          Evaluation license: Not for commercial or production use
--- Starting compilation
--- qubo.gms(3) 2 Mb
--- . devil50.inc(2658) 3 Mb
--- qubo.gms(22) 3 Mb
--- Starting execution: elapsed 0:00:00.042
--- qubo.gms(2676) 4 Mb
--- Generating MIQCP model stableset
--- qubo.gms(2678) 6 Mb
---   1 rows  153 columns  153 non-zeroes
---   8,109 nl-code  152 nl-non-zeroes
---   152 discrete-columns
--- qubo.gms(2678) 4 Mb
--- Executing GUROBI: elapsed 0:00:00.186

Gurobi           31.1.1 r4b06116 Released May 16, 2020 WEI x86 64bit/MS Window

Academic license - for non-commercial use only
GAMS/Gurobi demo/community requires a Gurobi license from Gurobi Optimization.
Gurobi library version 9.0.2
Starting Gurobi...
Gurobi Optimizer version 9.0.2 build v9.0.2rc0 (win64)
Optimize a model with 0 rows, 152 columns and 0 nonzeros
Model fingerprint: 0x00f1bb5e
Model has 2651 quadratic objective terms
Variable types: 0 continuous, 152 integer (152 binary)
Coefficient statistics:
  Matrix range     [0e+00, 0e+00]
  Objective range  [1e+00, 1e+00]
  QObjective range [4e+00, 4e+00]
  Bounds range     [1e+00, 1e+00]
  RHS range        [0e+00, 0e+00]
Found heuristic solution: objective -0.0000000
Presolve time: 0.07s
Presolved: 2651 rows, 2803 columns, 7953 nonzeros
Variable types: 0 continuous, 2803 integer (2803 binary)

Root relaxation: objective -7.600000e+01, 126 iterations, 0.01 seconds

    Nodes    |    Current Node    |     Objective Bounds      |     Work
 Expl Unexpl |  Obj  Depth IntInf | Incumbent    BestBd   Gap | It/Node Time

     0     0   76.00000    0  152   -0.00000   76.00000      -     -    0s
H    0     0                      51.0000000   76.00000  49.0%     -    0s
     0     0   75.50000    0  151   51.00000   75.50000  48.0%     -    1s
     0     0   75.50000    0  151   51.00000   75.50000  48.0%     -    2s
     0     0   75.50000    0  152   51.00000   75.50000  48.0%     -    2s
     0     0   75.50000    0  152   51.00000   75.50000  48.0%     -    2s
     0     2   75.50000    0  152   51.00000   75.50000  48.0%     -    4s
    27    27   68.00000   15  108   51.00000   75.00000  47.1%  26.8    6s
   362   327   67.00000   13  116   51.00000   71.00000  39.2%   6.9   10s
   516   478   56.00000   40  144   51.00000   71.00000  39.2%   6.3   15s

Cutting planes:
  Gomory: 2
  Flow cover: 141
  Zero half: 97

Explored 520 nodes (4227 simplex iterations) in 16.60 seconds
Thread count was 1 (of 8 available processors)

Solution count 2: 51 -0 

Optimal solution found (tolerance 1.00e-01)
Best objective 5.100000000000e+01, best bound 5.100000000000e+01, gap 0.0000%

User-callback calls 3307, time in user-callback 0.02 sec
MIQP status(2): Model was solved to optimality (subject to tolerances).

Solving fixed MIQP.
Gurobi Optimizer version 9.0.2 build v9.0.2rc0 (win64)
Optimize a model with 0 rows, 152 columns and 0 nonzeros
Model fingerprint: 0xfa219697
Model has 2651 quadratic objective terms
Coefficient statistics:
  Matrix range     [0e+00, 0e+00]
  Objective range  [1e+00, 1e+00]
  QObjective range [4e+00, 4e+00]
  Bounds range     [1e+00, 1e+00]
  RHS range        [0e+00, 0e+00]
Presolve removed 0 rows and 152 columns
Presolve time: 0.00s
Presolve: All rows and columns removed

Barrier solved model in 0 iterations and 0.00 seconds
Optimal objective 5.10000000e+01

User-callback calls 3327, time in user-callback 0.02 sec
Fixed MIQP status(2): Model was solved to optimality (subject to tolerances).

MIQP  Solution:         51.000000    (4227 iterations, 520 nodes)
Final Solve:            51.000000    (0 iterations)

Best possible:          51.000000
Absolute gap:            0.000000
Relative gap:            0.000000

--- Restarting execution
--- qubo.gms(2678) 2 Mb
--- Reading solution for model stableset
***
*** Solver did not provide marginals for model stableset
***
--- Executing after solve: elapsed 0:00:17.487
--- qubo.gms(2680) 3 Mb
*** Status: Normal completion
--- Job qubo.gms Stop 06/03/20 22:07:37 elapsed 0:00:17.552
Cannot delete directory: 225a
Cannot delete directory: 225a
